WARNING: for repeatability, setting FPU to use double precision
============================[ Problem Statistics ]=============================
|                                                                             |
|  Number of variables:            50                                         |
|  Number of clauses:             235                                         |
|  Parse time:                   0.00 s                                       |
|                                                                             |
============================[ Search Statistics ]==============================
| Conflicts |          ORIGINAL         |          LEARNT          | Progress |
|           |    Vars  Clauses Literals |    Limit  Clauses Lit/Cl |          |
===============================================================================
|       100 |      50      235      500 |       86      100      8 |  0.087 % |
===============================================================================
restarts              : 2
conflicts             : 155            (34148 /sec)
decisions             : 176            (0.00 % random) (38775 /sec)
propagations          : 2919           (643093 /sec)
conflict literals     : 1117           (15.44 % deleted)
Memory used           : 11.00 MB
CPU time              : 0.004539 s

UNSATISFIABLE
